\ Model chvatal
\ LP format - for model browsing. Use MPS format to capture full model detail.
Maximize
  - 0.0001 u(ord(0,1)) - 0.0001 u(ord(0,2)) - 0.0001 u(ord(1,1))
   - 0.0001 u(ord(1,2)) - 0.0001 u(ord(2,1)) - 0.0001 u(ord(2,2))
   - 0.0001 u(triangle2(0,1,0)) - 0.0001 u(triangle2(0,1,1))
   - 0.0001 u(triangle2(0,1,2)) - 0.0001 u(triangle2(0,2,0))
   - 0.0001 u(triangle2(0,2,1)) - 0.0001 u(triangle2(0,2,2))
   - 0.0001 u(triangle2(1,2,0)) - 0.0001 u(triangle2(1,2,1))
   - 0.0001 u(triangle2(1,2,2)) - 0.0001 u(MCLinV(0,1,0))
   - 0.0001 u(MCLinV(1,0,0)) - 0.0001 u(MCLin1(0,1,0))
   - 0.0001 u(MCLin2(0,1,0)) - 0.0001 u(MCLin3(0,1,0))
   - 0.0001 u(MCLin4(0,1,0)) - 0.0001 u(MCLin5(0,1,0))
   - 0.0001 u(MCLin6(1,0,0)) - 0.0001 u(MCLin7(1,0,0))
   - 0.0001 u(MCLin8(1,0,0)) - 0.0001 u(MCLin9(1,0,0))
   - 0.0001 u(MCLin10(1,0,0)) - 0.0001 u(MCLinV(0,1,1))
   - 0.0001 u(MCLinV(1,0,1)) - 0.0001 u(MCLin1(0,1,1))
   - 0.0001 u(MCLin2(0,1,1)) - 0.0001 u(MCLin3(0,1,1))
   - 0.0001 u(MCLin4(0,1,1)) - 0.0001 u(MCLin5(0,1,1))
   - 0.0001 u(MCLin6(1,0,1)) - 0.0001 u(MCLin7(1,0,1))
   - 0.0001 u(MCLin8(1,0,1)) - 0.0001 u(MCLin9(1,0,1))
   - 0.0001 u(MCLin10(1,0,1)) - 0.0001 u(MCLinV(0,1,2))
   - 0.0001 u(MCLinV(1,0,2)) - 0.0001 u(MCLin1(0,1,2))
   - 0.0001 u(MCLin2(0,1,2)) - 0.0001 u(MCLin3(0,1,2))
   - 0.0001 u(MCLin4(0,1,2)) - 0.0001 u(MCLin5(0,1,2))
   - 0.0001 u(MCLin6(1,0,2)) - 0.0001 u(MCLin7(1,0,2))
   - 0.0001 u(MCLin8(1,0,2)) - 0.0001 u(MCLin9(1,0,2))
   - 0.0001 u(MCLin10(1,0,2)) - 0.0001 u(MCLinV(0,2,0))
   - 0.0001 u(MCLinV(2,0,0)) - 0.0001 u(MCLin1(0,2,0))
   - 0.0001 u(MCLin2(0,2,0)) - 0.0001 u(MCLin3(0,2,0))
   - 0.0001 u(MCLin4(0,2,0)) - 0.0001 u(MCLin5(0,2,0))
   - 0.0001 u(MCLin6(2,0,0)) - 0.0001 u(MCLin7(2,0,0))
   - 0.0001 u(MCLin8(2,0,0)) - 0.0001 u(MCLin9(2,0,0))
   - 0.0001 u(MCLin10(2,0,0)) - 0.0001 u(MCLinV(0,2,1))
   - 0.0001 u(MCLinV(2,0,1)) - 0.0001 u(MCLin1(0,2,1))
   - 0.0001 u(MCLin2(0,2,1)) - 0.0001 u(MCLin3(0,2,1))
   - 0.0001 u(MCLin4(0,2,1)) - 0.0001 u(MCLin5(0,2,1))
   - 0.0001 u(MCLin6(2,0,1)) - 0.0001 u(MCLin7(2,0,1))
   - 0.0001 u(MCLin8(2,0,1)) - 0.0001 u(MCLin9(2,0,1))
   - 0.0001 u(MCLin10(2,0,1)) - 0.0001 u(MCLinV(0,2,2))
   - 0.0001 u(MCLinV(2,0,2)) - 0.0001 u(MCLin1(0,2,2))
   - 0.0001 u(MCLin2(0,2,2)) - 0.0001 u(MCLin3(0,2,2))
   - 0.0001 u(MCLin4(0,2,2)) - 0.0001 u(MCLin5(0,2,2))
   - 0.0001 u(MCLin6(2,0,2)) - 0.0001 u(MCLin7(2,0,2))
   - 0.0001 u(MCLin8(2,0,2)) - 0.0001 u(MCLin9(2,0,2))
   - 0.0001 u(MCLin10(2,0,2)) - 0.0001 u(MCLinV(1,2,0))
   - 0.0001 u(MCLinV(2,1,0)) - 0.0001 u(MCLin1(1,2,0))
   - 0.0001 u(MCLin2(1,2,0)) - 0.0001 u(MCLin3(1,2,0))
   - 0.0001 u(MCLin4(1,2,0)) - 0.0001 u(MCLin5(1,2,0))
   - 0.0001 u(MCLin6(2,1,0)) - 0.0001 u(MCLin7(2,1,0))
   - 0.0001 u(MCLin8(2,1,0)) - 0.0001 u(MCLin9(2,1,0))
   - 0.0001 u(MCLin10(2,1,0)) - 0.0001 u(MCLinV(1,2,1))
   - 0.0001 u(MCLinV(2,1,1)) - 0.0001 u(MCLin1(1,2,1))
   - 0.0001 u(MCLin2(1,2,1)) - 0.0001 u(MCLin3(1,2,1))
   - 0.0001 u(MCLin4(1,2,1)) - 0.0001 u(MCLin5(1,2,1))
   - 0.0001 u(MCLin6(2,1,1)) - 0.0001 u(MCLin7(2,1,1))
   - 0.0001 u(MCLin8(2,1,1)) - 0.0001 u(MCLin9(2,1,1))
   - 0.0001 u(MCLin10(2,1,1)) - 0.0001 u(MCLinV(1,2,2))
   - 0.0001 u(MCLinV(2,1,2)) - 0.0001 u(MCLin1(1,2,2))
   - 0.0001 u(MCLin2(1,2,2)) - 0.0001 u(MCLin3(1,2,2))
   - 0.0001 u(MCLin4(1,2,2)) - 0.0001 u(MCLin5(1,2,2))
   - 0.0001 u(MCLin6(2,1,2)) - 0.0001 u(MCLin7(2,1,2))
   - 0.0001 u(MCLin8(2,1,2)) - 0.0001 u(MCLin9(2,1,2))
   - 0.0001 u(MCLin10(2,1,2)) - 0.0001 u(makespan(0))
   - 0.0001 u(makespan(1)) - 0.0001 u(makespan(2))
   - 0.0001 u(cut_clique(012,1)) - 0.0001 u(cut_basic_best(02,0))
   - 0.0001 u(cut_two_jobs(0,2,0)) - 0.0001 u(cut_basic_best(012,1))
   - 0.0001 u(cut_two_jobs(0,2,1))
   - 0.0001 u(cut_basic_plus_epsilon_best(12,1,0))
   - 0.0001 u(cut_basic_plus_epsilon_best(02,1,1))
   - 0.0001 u(cut_basic_plus_epsilon_best(01,1,2))
   - 0.0001 u(cut_basic_best(012,2)) - 0.0001 u(cut_two_jobs(0,1,2))
   - 0.0001 u(cut_basic_plus_epsilon_best(12,2,0))
   - 0.0001 u(cut_basic_plus_epsilon_best(02,2,1))
   - 0.0001 u(cut_basic_plus_epsilon_best(01,2,2)) + 22 a(C) + 6 a(x(0,1))
   + 13.6 a(x(0,2)) + 20.8 a(x(0,0)) + 11.36065573770491 a(x(1,0))
   + 6.980327868852457 a(x(1,1)) + 14.4 a(x(1,2))
   + 5.139344262295084 a(x(2,1)) + 13 a(x(2,2)) + 19 a(x(2,0))
   + a(y(1,0,0)) + 0.1606557377049179 a(y(0,1,1))
   + 0.8393442622950821 a(y(1,0,1)) + 0.4 a(y(0,1,2)) + 0.6 a(y(1,0,2))
   + 0.2 a(y(0,2,0)) + 0.8 a(y(2,0,0)) + 0.580327868852459 a(y(0,2,1))
   + 0.419672131147541 a(y(2,0,1)) + 0.2 a(y(0,2,2)) + 0.8 a(y(2,0,2))
   + 0.8 a(y(1,2,0)) + 0.2 a(y(2,1,0)) + 0.5803278688524588 a(y(1,2,1))
   + 0.4196721311475412 a(y(2,1,1)) + 0.2 a(y(1,2,2)) + 0.8 a(y(2,1,2))
   + 6.439344262295087 a(v(0,1,0)p) + 10.43934426229509 a(v(1,0,0)n)
   + 6.439344262295087 a(u(0,1,0)p) + 440 a(u(1,0,0)p) + 440 a(u(1,0,0)n)
   + 4.980327868852457 a(v(0,1,1)n) + 6.019672131147543 a(v(1,0,1)n)
   + 7.8 a(v(0,1,2)n) + 6.2 a(v(1,0,2)n) + 440 a(u(1,0,2)p)
   + 440 a(u(1,0,2)n) + 0.8 a(v(0,2,0)p) + a(v(0,2,0)n) + 2.8 a(v(2,0,0)n)
   + 5.6 a(u(0,2,0)p) + 0.2590163934426233 a(v(0,2,1)p)
   + 6.398360655737707 a(v(0,2,1)n) + 7.860655737704916 a(v(2,0,1)n)
   + 0.4 a(v(0,2,2)p) + 5.8 a(v(0,2,2)n) + 7.6 a(v(2,0,2)n)
   + 0.2 a(u(0,2,2)p) + 440 a(u(2,0,2)p) + 440 a(u(2,0,2)n)
   + 9.639344262295086 a(v(1,2,0)n) + 4.839344262295086 a(v(2,1,0)p)
   + 0.2 a(v(2,1,0)n) + 5.159016393442626 a(v(1,2,1)n)
   + 0.4196721311475411 a(v(2,1,1)p) + 6.260655737704915 a(v(2,1,1)n)
   + 440 a(u(2,1,1)p) + 440 a(u(2,1,1)n) + 0.2 a(v(1,2,2)p)
   + 4.8 a(v(1,2,2)n) + 8.4 a(v(2,1,2)n) + 440 a(u(1,2,2)p)
   + 440 a(u(1,2,2)n) + 440 a(u(2,1,2)p) + 440 a(u(2,1,2)n) - a0
Subject To
 f_C: - u(makespan(0)) - u(makespan(1)) - u(makespan(2)) - a(C) - f(C)
   = -0
 f_x(0,1): u(ord(0,1)) - u(MCLinV(0,1,1)) + u(MCLinV(1,0,1))
   - u(MCLinV(0,2,1)) + u(MCLinV(2,0,1)) - 0.25 u(cut_clique(012,1))
   - 7 u(cut_basic_best(012,1)) - 7 u(cut_two_jobs(0,2,1))
   - 7 u(cut_basic_plus_epsilon_best(02,1,1))
   - 7 u(cut_basic_plus_epsilon_best(01,1,2)) - a(x(0,1)) - f(x(0,1)) = -0
 f_x(0,2): - u(ord(0,1)) + u(ord(0,2)) - u(MCLinV(0,1,2))
   + u(MCLinV(1,0,2)) - u(MCLinV(0,2,2)) + u(MCLinV(2,0,2))
   - 7 u(cut_basic_best(012,2)) - 7 u(cut_two_jobs(0,1,2))
   - 7 u(cut_basic_plus_epsilon_best(02,2,1))
   - 7 u(cut_basic_plus_epsilon_best(01,2,2)) - a(x(0,2)) - f(x(0,2)) = -0
 f_x(0,0): - u(ord(0,2)) - u(MCLinV(0,1,0)) + u(MCLinV(1,0,0))
   - u(MCLinV(0,2,0)) + u(MCLinV(2,0,0)) + u(makespan(0))
   - u(cut_basic_best(02,0)) - 2 u(cut_two_jobs(0,2,0)) - a(x(0,0))
   - f(x(0,0)) = -0
 f_x(1,0): - u(ord(1,1)) + u(ord(1,2)) + u(MCLinV(0,1,0))
   - u(MCLinV(1,0,0)) - u(MCLinV(1,2,0)) + u(MCLinV(2,1,0)) - a(x(1,0))
   - f(x(1,0)) = -0
 f_x(1,1): u(ord(1,1)) + u(MCLinV(0,1,1)) - u(MCLinV(1,0,1))
   - u(MCLinV(1,2,1)) + u(MCLinV(2,1,1)) - 0.14286 u(cut_clique(012,1))
   - 4 u(cut_basic_best(012,1)) - 4 u(cut_basic_plus_epsilon_best(12,1,0))
   - 4 u(cut_basic_plus_epsilon_best(01,1,2)) - a(x(1,1)) - f(x(1,1)) = -0
 f_x(1,2): - u(ord(1,2)) + u(MCLinV(0,1,2)) - u(MCLinV(1,0,2))
   - u(MCLinV(1,2,2)) + u(MCLinV(2,1,2)) + u(makespan(1))
   - 7 u(cut_basic_best(012,2)) - 7 u(cut_two_jobs(0,1,2))
   - 7 u(cut_basic_plus_epsilon_best(12,2,0))
   - 7 u(cut_basic_plus_epsilon_best(01,2,2)) - a(x(1,2)) - f(x(1,2)) = -0
 f_x(2,1): u(ord(2,1)) + u(MCLinV(0,2,1)) - u(MCLinV(2,0,1))
   + u(MCLinV(1,2,1)) - u(MCLinV(2,1,1)) - 7 u(cut_basic_best(012,1))
   - 7 u(cut_two_jobs(0,2,1)) - 7 u(cut_basic_plus_epsilon_best(12,1,0))
   - 7 u(cut_basic_plus_epsilon_best(02,1,1)) - a(x(2,1)) - f(x(2,1)) = -0
 f_x(2,2): - u(ord(2,1)) + u(ord(2,2)) + u(MCLinV(0,2,2))
   - u(MCLinV(2,0,2)) + u(MCLinV(1,2,2)) - u(MCLinV(2,1,2))
   - 6 u(cut_basic_best(012,2)) - 6 u(cut_basic_plus_epsilon_best(12,2,0))
   - 6 u(cut_basic_plus_epsilon_best(02,2,1)) - a(x(2,2)) - f(x(2,2)) = -0
 f_x(2,0): - u(ord(2,2)) + u(MCLinV(0,2,0)) - u(MCLinV(2,0,0))
   + u(MCLinV(1,2,0)) - u(MCLinV(2,1,0)) + u(makespan(2))
   - 2 u(cut_basic_best(02,0)) - u(cut_two_jobs(0,2,0)) - a(x(2,0))
   - f(x(2,0)) = -0
 f_y(1,0,0): u(triangle2(0,1,0)) - 23 u(MCLin2(0,1,0))
   + 36 u(MCLin3(0,1,0)) - 36 u(MCLin4(0,1,0)) + 23 u(MCLin5(0,1,0))
   - a(y(1,0,0)) - f(y(1,0,0)) = -0
 f_y(0,1,1): u(triangle2(0,1,1)) - 36 u(MCLin7(1,0,1))
   + 23 u(MCLin8(1,0,1)) - 23 u(MCLin9(1,0,1)) + 36 u(MCLin10(1,0,1))
   - a(y(0,1,1)) - f(y(0,1,1)) = -0
 f_y(1,0,1): u(triangle2(0,1,1)) - 34 u(MCLin2(0,1,1))
   + 25 u(MCLin3(0,1,1)) - 25 u(MCLin4(0,1,1)) + 34 u(MCLin5(0,1,1))
   - a(y(1,0,1)) - f(y(1,0,1)) = -0
 f_y(0,1,2): u(triangle2(0,1,2)) - 36 u(MCLin7(1,0,2))
   + 23 u(MCLin8(1,0,2)) - 23 u(MCLin9(1,0,2)) + 36 u(MCLin10(1,0,2))
   - a(y(0,1,2)) - f(y(0,1,2)) = -0
 f_y(1,0,2): u(triangle2(0,1,2)) - 37 u(MCLin2(0,1,2))
   + 22 u(MCLin3(0,1,2)) - 22 u(MCLin4(0,1,2)) + 37 u(MCLin5(0,1,2))
   - a(y(1,0,2)) - f(y(1,0,2)) = -0
 f_y(0,2,0): u(triangle2(0,2,0)) - 31 u(MCLin7(2,0,0))
   + 27 u(MCLin8(2,0,0)) - 27 u(MCLin9(2,0,0)) + 31 u(MCLin10(2,0,0))
   - a(y(0,2,0)) - f(y(0,2,0)) = -0
 f_y(2,0,0): u(triangle2(0,2,0)) - 30 u(MCLin2(0,2,0))
   + 28 u(MCLin3(0,2,0)) - 28 u(MCLin4(0,2,0)) + 30 u(MCLin5(0,2,0))
   - a(y(2,0,0)) - f(y(2,0,0)) = -0
 f_y(0,2,1): u(triangle2(0,2,1)) - 36 u(MCLin7(2,0,1))
   + 22 u(MCLin8(2,0,1)) - 22 u(MCLin9(2,0,1)) + 36 u(MCLin10(2,0,1))
   - a(y(0,2,1)) - f(y(0,2,1)) = -0
 f_y(2,0,1): u(triangle2(0,2,1)) - 36 u(MCLin2(0,2,1))
   + 22 u(MCLin3(0,2,1)) - 22 u(MCLin4(0,2,1)) + 36 u(MCLin5(0,2,1))
   - a(y(2,0,1)) - f(y(2,0,1)) = -0
 f_y(0,2,2): u(triangle2(0,2,2)) - 36 u(MCLin7(2,0,2))
   + 22 u(MCLin8(2,0,2)) - 22 u(MCLin9(2,0,2)) + 36 u(MCLin10(2,0,2))
   - a(y(0,2,2)) - f(y(0,2,2)) = -0
 f_y(2,0,2): u(triangle2(0,2,2)) - 35 u(MCLin2(0,2,2))
   + 23 u(MCLin3(0,2,2)) - 23 u(MCLin4(0,2,2)) + 35 u(MCLin5(0,2,2))
   - a(y(2,0,2)) - f(y(2,0,2)) = -0
 f_y(1,2,0): u(triangle2(1,2,0)) - 24 u(MCLin7(2,1,0))
   + 35 u(MCLin8(2,1,0)) - 35 u(MCLin9(2,1,0)) + 24 u(MCLin10(2,1,0))
   - a(y(1,2,0)) - f(y(1,2,0)) = -0
 f_y(2,1,0): u(triangle2(1,2,0)) - 40 u(MCLin2(1,2,0))
   + 19 u(MCLin3(1,2,0)) - 19 u(MCLin4(1,2,0)) + 40 u(MCLin5(1,2,0))
   - a(y(2,1,0)) - f(y(2,1,0)) = -0
 f_y(1,2,1): u(triangle2(1,2,1)) - 34 u(MCLin7(2,1,1))
   + 25 u(MCLin8(2,1,1)) - 25 u(MCLin9(2,1,1)) + 34 u(MCLin10(2,1,1))
   - a(y(1,2,1)) - f(y(1,2,1)) = -0
 f_y(2,1,1): u(triangle2(1,2,1)) - 36 u(MCLin2(1,2,1))
   + 23 u(MCLin3(1,2,1)) - 23 u(MCLin4(1,2,1)) + 36 u(MCLin5(1,2,1))
   - a(y(2,1,1)) - f(y(2,1,1)) = -0
 f_y(1,2,2): u(triangle2(1,2,2)) - 37 u(MCLin7(2,1,2))
   + 22 u(MCLin8(2,1,2)) - 22 u(MCLin9(2,1,2)) + 37 u(MCLin10(2,1,2))
   - a(y(1,2,2)) - f(y(1,2,2)) = -0
 f_y(2,1,2): u(triangle2(1,2,2)) - 35 u(MCLin2(1,2,2))
   + 24 u(MCLin3(1,2,2)) - 24 u(MCLin4(1,2,2)) + 35 u(MCLin5(1,2,2))
   - a(y(2,1,2)) - f(y(2,1,2)) = -0
 f_v(0,1,0)p: u(MCLinV(0,1,0)) + u(MCLin3(0,1,0)) - u(MCLin5(0,1,0))
   - a(v(0,1,0)p) - f(v(0,1,0)p) = -0
 f_v(1,0,0)n: - u(MCLinV(1,0,0)) - u(MCLin8(1,0,0)) + u(MCLin10(1,0,0))
   - a(v(1,0,0)n) - f(v(1,0,0)n) = -0
 f_u(0,1,0)p: - u(MCLin1(0,1,0)) - u(MCLin2(0,1,0)) - u(MCLin3(0,1,0))
   + u(MCLin4(0,1,0)) + u(MCLin5(0,1,0)) - a(u(0,1,0)p) - f(u(0,1,0)p)
   = -0
 f_u(1,0,0)p: - u(MCLin6(1,0,0)) - u(MCLin7(1,0,0)) - u(MCLin8(1,0,0))
   + u(MCLin9(1,0,0)) + u(MCLin10(1,0,0)) - a(u(1,0,0)p) - f(u(1,0,0)p)
   = -0
 f_u(1,0,0)n: u(MCLin6(1,0,0)) + u(MCLin7(1,0,0)) + u(MCLin8(1,0,0))
   - u(MCLin9(1,0,0)) - u(MCLin10(1,0,0)) - a(u(1,0,0)n) - f(u(1,0,0)n)
   = -0
 f_v(0,1,1)n: - u(MCLinV(0,1,1)) - u(MCLin3(0,1,1)) + u(MCLin5(0,1,1))
   - a(v(0,1,1)n) - f(v(0,1,1)n) = -0
 f_v(1,0,1)n: - u(MCLinV(1,0,1)) - u(MCLin8(1,0,1)) + u(MCLin10(1,0,1))
   - a(v(1,0,1)n) - f(v(1,0,1)n) = -0
 f_v(0,1,2)n: - u(MCLinV(0,1,2)) - u(MCLin3(0,1,2)) + u(MCLin5(0,1,2))
   - a(v(0,1,2)n) - f(v(0,1,2)n) = -0
 f_v(1,0,2)n: - u(MCLinV(1,0,2)) - u(MCLin8(1,0,2)) + u(MCLin10(1,0,2))
   - a(v(1,0,2)n) - f(v(1,0,2)n) = -0
 f_u(1,0,2)p: - u(MCLin6(1,0,2)) - u(MCLin7(1,0,2)) - u(MCLin8(1,0,2))
   + u(MCLin9(1,0,2)) + u(MCLin10(1,0,2)) - a(u(1,0,2)p) - f(u(1,0,2)p)
   = -0
 f_u(1,0,2)n: u(MCLin6(1,0,2)) + u(MCLin7(1,0,2)) + u(MCLin8(1,0,2))
   - u(MCLin9(1,0,2)) - u(MCLin10(1,0,2)) - a(u(1,0,2)n) - f(u(1,0,2)n)
   = -0
 f_v(0,2,0)p: u(MCLinV(0,2,0)) + u(MCLin3(0,2,0)) - u(MCLin5(0,2,0))
   - a(v(0,2,0)p) - f(v(0,2,0)p) = -0
 f_v(0,2,0)n: - u(MCLinV(0,2,0)) - u(MCLin3(0,2,0)) + u(MCLin5(0,2,0))
   - a(v(0,2,0)n) - f(v(0,2,0)n) = -0
 f_v(2,0,0)n: - u(MCLinV(2,0,0)) - u(MCLin8(2,0,0)) + u(MCLin10(2,0,0))
   - a(v(2,0,0)n) - f(v(2,0,0)n) = -0
 f_u(0,2,0)p: - u(MCLin1(0,2,0)) - u(MCLin2(0,2,0)) - u(MCLin3(0,2,0))
   + u(MCLin4(0,2,0)) + u(MCLin5(0,2,0)) - a(u(0,2,0)p) - f(u(0,2,0)p)
   = -0
 f_v(0,2,1)p: u(MCLinV(0,2,1)) + u(MCLin3(0,2,1)) - u(MCLin5(0,2,1))
   - a(v(0,2,1)p) - f(v(0,2,1)p) = -0
 f_v(0,2,1)n: - u(MCLinV(0,2,1)) - u(MCLin3(0,2,1)) + u(MCLin5(0,2,1))
   - a(v(0,2,1)n) - f(v(0,2,1)n) = -0
 f_v(2,0,1)n: - u(MCLinV(2,0,1)) - u(MCLin8(2,0,1)) + u(MCLin10(2,0,1))
   - a(v(2,0,1)n) - f(v(2,0,1)n) = -0
 f_v(0,2,2)p: u(MCLinV(0,2,2)) + u(MCLin3(0,2,2)) - u(MCLin5(0,2,2))
   - a(v(0,2,2)p) - f(v(0,2,2)p) = -0
 f_v(0,2,2)n: - u(MCLinV(0,2,2)) - u(MCLin3(0,2,2)) + u(MCLin5(0,2,2))
   - a(v(0,2,2)n) - f(v(0,2,2)n) = -0
 f_v(2,0,2)n: - u(MCLinV(2,0,2)) - u(MCLin8(2,0,2)) + u(MCLin10(2,0,2))
   - a(v(2,0,2)n) - f(v(2,0,2)n) = -0
 f_u(0,2,2)p: - u(MCLin1(0,2,2)) - u(MCLin2(0,2,2)) - u(MCLin3(0,2,2))
   + u(MCLin4(0,2,2)) + u(MCLin5(0,2,2)) - a(u(0,2,2)p) - f(u(0,2,2)p)
   = -0
 f_u(2,0,2)p: - u(MCLin6(2,0,2)) - u(MCLin7(2,0,2)) - u(MCLin8(2,0,2))
   + u(MCLin9(2,0,2)) + u(MCLin10(2,0,2)) - a(u(2,0,2)p) - f(u(2,0,2)p)
   = -0
 f_u(2,0,2)n: u(MCLin6(2,0,2)) + u(MCLin7(2,0,2)) + u(MCLin8(2,0,2))
   - u(MCLin9(2,0,2)) - u(MCLin10(2,0,2)) - a(u(2,0,2)n) - f(u(2,0,2)n)
   = -0
 f_v(1,2,0)n: - u(MCLinV(1,2,0)) - u(MCLin3(1,2,0)) + u(MCLin5(1,2,0))
   - a(v(1,2,0)n) - f(v(1,2,0)n) = -0
 f_v(2,1,0)p: u(MCLinV(2,1,0)) + u(MCLin8(2,1,0)) - u(MCLin10(2,1,0))
   - a(v(2,1,0)p) - f(v(2,1,0)p) = -0
 f_v(2,1,0)n: - u(MCLinV(2,1,0)) - u(MCLin8(2,1,0)) + u(MCLin10(2,1,0))
   - a(v(2,1,0)n) - f(v(2,1,0)n) = -0
 f_v(1,2,1)n: - u(MCLinV(1,2,1)) - u(MCLin3(1,2,1)) + u(MCLin5(1,2,1))
   - a(v(1,2,1)n) - f(v(1,2,1)n) = -0
 f_v(2,1,1)p: u(MCLinV(2,1,1)) + u(MCLin8(2,1,1)) - u(MCLin10(2,1,1))
   - a(v(2,1,1)p) - f(v(2,1,1)p) = -0
 f_v(2,1,1)n: - u(MCLinV(2,1,1)) - u(MCLin8(2,1,1)) + u(MCLin10(2,1,1))
   - a(v(2,1,1)n) - f(v(2,1,1)n) = -0
 f_u(2,1,1)p: - u(MCLin6(2,1,1)) - u(MCLin7(2,1,1)) - u(MCLin8(2,1,1))
   + u(MCLin9(2,1,1)) + u(MCLin10(2,1,1)) - a(u(2,1,1)p) - f(u(2,1,1)p)
   = -0
 f_u(2,1,1)n: u(MCLin6(2,1,1)) + u(MCLin7(2,1,1)) + u(MCLin8(2,1,1))
   - u(MCLin9(2,1,1)) - u(MCLin10(2,1,1)) - a(u(2,1,1)n) - f(u(2,1,1)n)
   = -0
 f_v(1,2,2)p: u(MCLinV(1,2,2)) + u(MCLin3(1,2,2)) - u(MCLin5(1,2,2))
   - a(v(1,2,2)p) - f(v(1,2,2)p) = -0
 f_v(1,2,2)n: - u(MCLinV(1,2,2)) - u(MCLin3(1,2,2)) + u(MCLin5(1,2,2))
   - a(v(1,2,2)n) - f(v(1,2,2)n) = -0
 f_v(2,1,2)n: - u(MCLinV(2,1,2)) - u(MCLin8(2,1,2)) + u(MCLin10(2,1,2))
   - a(v(2,1,2)n) - f(v(2,1,2)n) = -0
 f_u(1,2,2)p: - u(MCLin1(1,2,2)) - u(MCLin2(1,2,2)) - u(MCLin3(1,2,2))
   + u(MCLin4(1,2,2)) + u(MCLin5(1,2,2)) - a(u(1,2,2)p) - f(u(1,2,2)p)
   = -0
 f_u(1,2,2)n: u(MCLin1(1,2,2)) + u(MCLin2(1,2,2)) + u(MCLin3(1,2,2))
   - u(MCLin4(1,2,2)) - u(MCLin5(1,2,2)) - a(u(1,2,2)n) - f(u(1,2,2)n)
   = -0
 f_u(2,1,2)p: - u(MCLin6(2,1,2)) - u(MCLin7(2,1,2)) - u(MCLin8(2,1,2))
   + u(MCLin9(2,1,2)) + u(MCLin10(2,1,2)) - a(u(2,1,2)p) - f(u(2,1,2)p)
   = -0
 f_u(2,1,2)n: u(MCLin6(2,1,2)) + u(MCLin7(2,1,2)) + u(MCLin8(2,1,2))
   - u(MCLin9(2,1,2)) - u(MCLin10(2,1,2)) - a(u(2,1,2)n) - f(u(2,1,2)n)
   = -0
 f: - 7 u(ord(0,1)) - 7 u(ord(0,2)) - 4 u(ord(1,1)) - 3 u(ord(1,2))
   - 7 u(ord(2,1)) - 6 u(ord(2,2)) + u(triangle2(0,1,0))
   + u(triangle2(0,1,1)) + u(triangle2(0,1,2)) + u(triangle2(0,2,0))
   + u(triangle2(0,2,1)) + u(triangle2(0,2,2)) + u(triangle2(1,2,0))
   + u(triangle2(1,2,1)) + u(triangle2(1,2,2)) - 3 u(MCLinV(0,1,0))
   - u(MCLinV(1,0,0)) + 36 u(MCLin3(0,1,0)) + 23 u(MCLin5(0,1,0))
   + 19 u(MCLin8(1,0,0)) + 40 u(MCLin10(1,0,0)) - 4 u(MCLinV(0,1,1))
   - 7 u(MCLinV(1,0,1)) + 25 u(MCLin3(0,1,1)) + 34 u(MCLin5(0,1,1))
   + 23 u(MCLin8(1,0,1)) + 36 u(MCLin10(1,0,1)) - 7 u(MCLinV(0,1,2))
   - 7 u(MCLinV(1,0,2)) + 22 u(MCLin3(0,1,2)) + 37 u(MCLin5(0,1,2))
   + 23 u(MCLin8(1,0,2)) + 36 u(MCLin10(1,0,2)) - 2 u(MCLinV(0,2,0))
   - u(MCLinV(2,0,0)) + 28 u(MCLin3(0,2,0)) + 30 u(MCLin5(0,2,0))
   + 27 u(MCLin8(2,0,0)) + 31 u(MCLin10(2,0,0)) - 7 u(MCLinV(0,2,1))
   - 7 u(MCLinV(2,0,1)) + 22 u(MCLin3(0,2,1)) + 36 u(MCLin5(0,2,1))
   + 22 u(MCLin8(2,0,1)) + 36 u(MCLin10(2,0,1)) - 6 u(MCLinV(0,2,2))
   - 7 u(MCLinV(2,0,2)) + 23 u(MCLin3(0,2,2)) + 35 u(MCLin5(0,2,2))
   + 22 u(MCLin8(2,0,2)) + 36 u(MCLin10(2,0,2)) - 2 u(MCLinV(1,2,0))
   - 3 u(MCLinV(2,1,0)) + 19 u(MCLin3(1,2,0)) + 40 u(MCLin5(1,2,0))
   + 35 u(MCLin8(2,1,0)) + 24 u(MCLin10(2,1,0)) - 7 u(MCLinV(1,2,1))
   - 4 u(MCLinV(2,1,1)) + 23 u(MCLin3(1,2,1)) + 36 u(MCLin5(1,2,1))
   + 25 u(MCLin8(2,1,1)) + 34 u(MCLin10(2,1,1)) - 6 u(MCLinV(1,2,2))
   - 7 u(MCLinV(2,1,2)) + 24 u(MCLin3(1,2,2)) + 35 u(MCLin5(1,2,2))
   + 22 u(MCLin8(2,1,2)) + 37 u(MCLin10(2,1,2)) - u(makespan(0))
   - 7 u(makespan(1)) - 2 u(makespan(2)) - u(cut_clique(012,1))
   - 41 u(cut_basic_best(02,0)) - 43 u(cut_two_jobs(0,2,0))
   - 105 u(cut_basic_best(012,1)) - 49 u(cut_two_jobs(0,2,1))
   - 28 u(cut_basic_plus_epsilon_best(12,1,0))
   - 49 u(cut_basic_plus_epsilon_best(02,1,1))
   - 28 u(cut_basic_plus_epsilon_best(01,1,2))
   - 273 u(cut_basic_best(012,2)) - 147 u(cut_two_jobs(0,1,2))
   - 133 u(cut_basic_plus_epsilon_best(12,2,0))
   - 133 u(cut_basic_plus_epsilon_best(02,2,1))
   - 147 u(cut_basic_plus_epsilon_best(01,2,2)) - a0 - f0 = -0
Bounds
 u(ord(0,1)) <= 0.99
 u(ord(0,2)) <= 0.99
 u(ord(1,1)) <= 0.99
 u(ord(1,2)) <= 0.99
 u(ord(2,1)) <= 0.99
 u(ord(2,2)) <= 0.99
 u(triangle2(0,1,0)) <= 0.99
 u(triangle2(0,1,1)) <= 0.99
 u(triangle2(0,1,2)) <= 0.99
 u(triangle2(0,2,0)) <= 0.99
 u(triangle2(0,2,1)) <= 0.99
 u(triangle2(0,2,2)) <= 0.99
 u(triangle2(1,2,0)) <= 0.99
 u(triangle2(1,2,1)) <= 0.99
 u(triangle2(1,2,2)) <= 0.99
 u(MCLinV(0,1,0)) <= 0.99
 u(MCLinV(1,0,0)) <= 0.99
 u(MCLin1(0,1,0)) <= 0.99
 u(MCLin2(0,1,0)) <= 0.99
 u(MCLin3(0,1,0)) <= 0.99
 u(MCLin4(0,1,0)) <= 0.99
 u(MCLin5(0,1,0)) <= 0.99
 u(MCLin6(1,0,0)) <= 0.99
 u(MCLin7(1,0,0)) <= 0.99
 u(MCLin8(1,0,0)) <= 0.99
 u(MCLin9(1,0,0)) <= 0.99
 u(MCLin10(1,0,0)) <= 0.99
 u(MCLinV(0,1,1)) <= 0.99
 u(MCLinV(1,0,1)) <= 0.99
 u(MCLin1(0,1,1)) <= 0.99
 u(MCLin2(0,1,1)) <= 0.99
 u(MCLin3(0,1,1)) <= 0.99
 u(MCLin4(0,1,1)) <= 0.99
 u(MCLin5(0,1,1)) <= 0.99
 u(MCLin6(1,0,1)) <= 0.99
 u(MCLin7(1,0,1)) <= 0.99
 u(MCLin8(1,0,1)) <= 0.99
 u(MCLin9(1,0,1)) <= 0.99
 u(MCLin10(1,0,1)) <= 0.99
 u(MCLinV(0,1,2)) <= 0.99
 u(MCLinV(1,0,2)) <= 0.99
 u(MCLin1(0,1,2)) <= 0.99
 u(MCLin2(0,1,2)) <= 0.99
 u(MCLin3(0,1,2)) <= 0.99
 u(MCLin4(0,1,2)) <= 0.99
 u(MCLin5(0,1,2)) <= 0.99
 u(MCLin6(1,0,2)) <= 0.99
 u(MCLin7(1,0,2)) <= 0.99
 u(MCLin8(1,0,2)) <= 0.99
 u(MCLin9(1,0,2)) <= 0.99
 u(MCLin10(1,0,2)) <= 0.99
 u(MCLinV(0,2,0)) <= 0.99
 u(MCLinV(2,0,0)) <= 0.99
 u(MCLin1(0,2,0)) <= 0.99
 u(MCLin2(0,2,0)) <= 0.99
 u(MCLin3(0,2,0)) <= 0.99
 u(MCLin4(0,2,0)) <= 0.99
 u(MCLin5(0,2,0)) <= 0.99
 u(MCLin6(2,0,0)) <= 0.99
 u(MCLin7(2,0,0)) <= 0.99
 u(MCLin8(2,0,0)) <= 0.99
 u(MCLin9(2,0,0)) <= 0.99
 u(MCLin10(2,0,0)) <= 0.99
 u(MCLinV(0,2,1)) <= 0.99
 u(MCLinV(2,0,1)) <= 0.99
 u(MCLin1(0,2,1)) <= 0.99
 u(MCLin2(0,2,1)) <= 0.99
 u(MCLin3(0,2,1)) <= 0.99
 u(MCLin4(0,2,1)) <= 0.99
 u(MCLin5(0,2,1)) <= 0.99
 u(MCLin6(2,0,1)) <= 0.99
 u(MCLin7(2,0,1)) <= 0.99
 u(MCLin8(2,0,1)) <= 0.99
 u(MCLin9(2,0,1)) <= 0.99
 u(MCLin10(2,0,1)) <= 0.99
 u(MCLinV(0,2,2)) <= 0.99
 u(MCLinV(2,0,2)) <= 0.99
 u(MCLin1(0,2,2)) <= 0.99
 u(MCLin2(0,2,2)) <= 0.99
 u(MCLin3(0,2,2)) <= 0.99
 u(MCLin4(0,2,2)) <= 0.99
 u(MCLin5(0,2,2)) <= 0.99
 u(MCLin6(2,0,2)) <= 0.99
 u(MCLin7(2,0,2)) <= 0.99
 u(MCLin8(2,0,2)) <= 0.99
 u(MCLin9(2,0,2)) <= 0.99
 u(MCLin10(2,0,2)) <= 0.99
 u(MCLinV(1,2,0)) <= 0.99
 u(MCLinV(2,1,0)) <= 0.99
 u(MCLin1(1,2,0)) <= 0.99
 u(MCLin2(1,2,0)) <= 0.99
 u(MCLin3(1,2,0)) <= 0.99
 u(MCLin4(1,2,0)) <= 0.99
 u(MCLin5(1,2,0)) <= 0.99
 u(MCLin6(2,1,0)) <= 0.99
 u(MCLin7(2,1,0)) <= 0.99
 u(MCLin8(2,1,0)) <= 0.99
 u(MCLin9(2,1,0)) <= 0.99
 u(MCLin10(2,1,0)) <= 0.99
 u(MCLinV(1,2,1)) <= 0.99
 u(MCLinV(2,1,1)) <= 0.99
 u(MCLin1(1,2,1)) <= 0.99
 u(MCLin2(1,2,1)) <= 0.99
 u(MCLin3(1,2,1)) <= 0.99
 u(MCLin4(1,2,1)) <= 0.99
 u(MCLin5(1,2,1)) <= 0.99
 u(MCLin6(2,1,1)) <= 0.99
 u(MCLin7(2,1,1)) <= 0.99
 u(MCLin8(2,1,1)) <= 0.99
 u(MCLin9(2,1,1)) <= 0.99
 u(MCLin10(2,1,1)) <= 0.99
 u(MCLinV(1,2,2)) <= 0.99
 u(MCLinV(2,1,2)) <= 0.99
 u(MCLin1(1,2,2)) <= 0.99
 u(MCLin2(1,2,2)) <= 0.99
 u(MCLin3(1,2,2)) <= 0.99
 u(MCLin4(1,2,2)) <= 0.99
 u(MCLin5(1,2,2)) <= 0.99
 u(MCLin6(2,1,2)) <= 0.99
 u(MCLin7(2,1,2)) <= 0.99
 u(MCLin8(2,1,2)) <= 0.99
 u(MCLin9(2,1,2)) <= 0.99
 u(MCLin10(2,1,2)) <= 0.99
 u(makespan(0)) <= 0.99
 u(makespan(1)) <= 0.99
 u(makespan(2)) <= 0.99
 u(cut_clique(012,1)) <= 0.99
 u(cut_basic_best(02,0)) <= 0.99
 u(cut_two_jobs(0,2,0)) <= 0.99
 u(cut_basic_best(012,1)) <= 0.99
 u(cut_two_jobs(0,2,1)) <= 0.99
 u(cut_basic_plus_epsilon_best(12,1,0)) <= 0.99
 u(cut_basic_plus_epsilon_best(02,1,1)) <= 0.99
 u(cut_basic_plus_epsilon_best(01,1,2)) <= 0.99
 u(cut_basic_best(012,2)) <= 0.99
 u(cut_two_jobs(0,1,2)) <= 0.99
 u(cut_basic_plus_epsilon_best(12,2,0)) <= 0.99
 u(cut_basic_plus_epsilon_best(02,2,1)) <= 0.99
 u(cut_basic_plus_epsilon_best(01,2,2)) <= 0.99
 a(C) >= -100000
 a(x(0,1)) >= -100000
 a(x(0,2)) >= -100000
 a(x(0,0)) >= -100000
 a(x(1,0)) >= -100000
 a(x(1,1)) >= -100000
 a(x(1,2)) >= -100000
 a(x(2,1)) >= -100000
 a(x(2,2)) >= -100000
 a(x(2,0)) >= -100000
 a(y(1,0,0)) >= -100000
 a(y(0,1,1)) >= -100000
 a(y(1,0,1)) >= -100000
 a(y(0,1,2)) >= -100000
 a(y(1,0,2)) >= -100000
 a(y(0,2,0)) >= -100000
 a(y(2,0,0)) >= -100000
 a(y(0,2,1)) >= -100000
 a(y(2,0,1)) >= -100000
 a(y(0,2,2)) >= -100000
 a(y(2,0,2)) >= -100000
 a(y(1,2,0)) >= -100000
 a(y(2,1,0)) >= -100000
 a(y(1,2,1)) >= -100000
 a(y(2,1,1)) >= -100000
 a(y(1,2,2)) >= -100000
 a(y(2,1,2)) >= -100000
 a(v(0,1,0)p) >= -100000
 a(v(1,0,0)n) >= -100000
 a(u(0,1,0)p) >= -100000
 a(u(1,0,0)p) >= -100000
 a(u(1,0,0)n) >= -100000
 a(v(0,1,1)n) >= -100000
 a(v(1,0,1)n) >= -100000
 a(v(0,1,2)n) >= -100000
 a(v(1,0,2)n) >= -100000
 a(u(1,0,2)p) >= -100000
 a(u(1,0,2)n) >= -100000
 a(v(0,2,0)p) >= -100000
 a(v(0,2,0)n) >= -100000
 a(v(2,0,0)n) >= -100000
 a(u(0,2,0)p) >= -100000
 a(v(0,2,1)p) >= -100000
 a(v(0,2,1)n) >= -100000
 a(v(2,0,1)n) >= -100000
 a(v(0,2,2)p) >= -100000
 a(v(0,2,2)n) >= -100000
 a(v(2,0,2)n) >= -100000
 a(u(0,2,2)p) >= -100000
 a(u(2,0,2)p) >= -100000
 a(u(2,0,2)n) >= -100000
 a(v(1,2,0)n) >= -100000
 a(v(2,1,0)p) >= -100000
 a(v(2,1,0)n) >= -100000
 a(v(1,2,1)n) >= -100000
 a(v(2,1,1)p) >= -100000
 a(v(2,1,1)n) >= -100000
 a(u(2,1,1)p) >= -100000
 a(u(2,1,1)n) >= -100000
 a(v(1,2,2)p) >= -100000
 a(v(1,2,2)n) >= -100000
 a(v(2,1,2)n) >= -100000
 a(u(1,2,2)p) >= -100000
 a(u(1,2,2)n) >= -100000
 a(u(2,1,2)p) >= -100000
 a(u(2,1,2)n) >= -100000
 f(C) <= 0.99
 f(x(0,1)) <= 0.99
 f(x(0,2)) <= 0.99
 f(x(0,0)) <= 0.99
 f(x(1,0)) <= 0.99
 f(x(1,1)) <= 0.99
 f(x(1,2)) <= 0.99
 f(x(2,1)) <= 0.99
 f(x(2,2)) <= 0.99
 f(x(2,0)) <= 0.99
 f(y(1,0,0)) <= 0.99
 f(y(0,1,1)) <= 0.99
 f(y(1,0,1)) <= 0.99
 f(y(0,1,2)) <= 0.99
 f(y(1,0,2)) <= 0.99
 f(y(0,2,0)) <= 0.99
 f(y(2,0,0)) <= 0.99
 f(y(0,2,1)) <= 0.99
 f(y(2,0,1)) <= 0.99
 f(y(0,2,2)) <= 0.99
 f(y(2,0,2)) <= 0.99
 f(y(1,2,0)) <= 0.99
 f(y(2,1,0)) <= 0.99
 f(y(1,2,1)) <= 0.99
 f(y(2,1,1)) <= 0.99
 f(y(1,2,2)) <= 0.99
 f(y(2,1,2)) <= 0.99
 f(v(0,1,0)p) <= 0.99
 f(v(1,0,0)n) <= 0.99
 f(u(0,1,0)p) <= 0.99
 f(u(1,0,0)p) <= 0.99
 f(u(1,0,0)n) <= 0.99
 f(v(0,1,1)n) <= 0.99
 f(v(1,0,1)n) <= 0.99
 f(v(0,1,2)n) <= 0.99
 f(v(1,0,2)n) <= 0.99
 f(u(1,0,2)p) <= 0.99
 f(u(1,0,2)n) <= 0.99
 f(v(0,2,0)p) <= 0.99
 f(v(0,2,0)n) <= 0.99
 f(v(2,0,0)n) <= 0.99
 f(u(0,2,0)p) <= 0.99
 f(v(0,2,1)p) <= 0.99
 f(v(0,2,1)n) <= 0.99
 f(v(2,0,1)n) <= 0.99
 f(v(0,2,2)p) <= 0.99
 f(v(0,2,2)n) <= 0.99
 f(v(2,0,2)n) <= 0.99
 f(u(0,2,2)p) <= 0.99
 f(u(2,0,2)p) <= 0.99
 f(u(2,0,2)n) <= 0.99
 f(v(1,2,0)n) <= 0.99
 f(v(2,1,0)p) <= 0.99
 f(v(2,1,0)n) <= 0.99
 f(v(1,2,1)n) <= 0.99
 f(v(2,1,1)p) <= 0.99
 f(v(2,1,1)n) <= 0.99
 f(u(2,1,1)p) <= 0.99
 f(u(2,1,1)n) <= 0.99
 f(v(1,2,2)p) <= 0.99
 f(v(1,2,2)n) <= 0.99
 f(v(2,1,2)n) <= 0.99
 f(u(1,2,2)p) <= 0.99
 f(u(1,2,2)n) <= 0.99
 f(u(2,1,2)p) <= 0.99
 f(u(2,1,2)n) <= 0.99
 a0 >= -100000
 f0 <= 0.99
Generals
 a(C) a(x(0,1)) a(x(0,2)) a(x(0,0)) a(x(1,0)) a(x(1,1)) a(x(1,2)) a(x(2,1))
 a(x(2,2)) a(x(2,0)) a(y(1,0,0)) a(y(0,1,1)) a(y(1,0,1)) a(y(0,1,2))
 a(y(1,0,2)) a(y(0,2,0)) a(y(2,0,0)) a(y(0,2,1)) a(y(2,0,1)) a(y(0,2,2))
 a(y(2,0,2)) a(y(1,2,0)) a(y(2,1,0)) a(y(1,2,1)) a(y(2,1,1)) a(y(1,2,2))
 a(y(2,1,2)) a(v(0,1,0)p) a(v(1,0,0)n) a(u(0,1,0)p) a(u(1,0,0)p)
 a(u(1,0,0)n) a(v(0,1,1)n) a(v(1,0,1)n) a(v(0,1,2)n) a(v(1,0,2)n)
 a(u(1,0,2)p) a(u(1,0,2)n) a(v(0,2,0)p) a(v(0,2,0)n) a(v(2,0,0)n)
 a(u(0,2,0)p) a(v(0,2,1)p) a(v(0,2,1)n) a(v(2,0,1)n) a(v(0,2,2)p)
 a(v(0,2,2)n) a(v(2,0,2)n) a(u(0,2,2)p) a(u(2,0,2)p) a(u(2,0,2)n)
 a(v(1,2,0)n) a(v(2,1,0)p) a(v(2,1,0)n) a(v(1,2,1)n) a(v(2,1,1)p)
 a(v(2,1,1)n) a(u(2,1,1)p) a(u(2,1,1)n) a(v(1,2,2)p) a(v(1,2,2)n)
 a(v(2,1,2)n) a(u(1,2,2)p) a(u(1,2,2)n) a(u(2,1,2)p) a(u(2,1,2)n) a0
End
